11506 4272 498 494 493 490 489 478 474 471 466 464 457 455 451 448 446 444 441 440 439 438 436 435 434 433 427 426 425 420 419 416 413 412 411 406 405 404 403 402 398 395 393 387 385 383 380 375 372 370 367 364 358 357 356 355 354 353 351 350 344 343 337 335 333 331 330 325 323 322 320 317 316 315 312 309 307 305 303 300 296 294 291 284 283 281 278 277 275 274 270 265 263 261 259 258 255 253 251 250 241 239 238 236 232 231 227 226 224 219 218 217 215 214 210 208 206 205 203 202 201 197 195 194 189 187 183 178 172 167 164 160 147 145 139 137 135 133 132 128 127 125 122 117 116 115 114 113 112 102 93 86 82 81 80 78 76 75 73 72 69 63 56 55 51 48 45 41 37 36 34 30 26 19 17 13 12 11 5 4 